sat
(= |goto_symex::&92;guard#1| true)
(= |goto_symex::&92;guard#2| true)
(= |goto_symex::&92;guard#3| true)
(= |goto_symex::&92;guard#4| false)
(= |nondet_symex::nondet0| true)
(= |nondet_symex::nondet2| false)
(= |nondet_symex::nondet5| false)
(= |nondet_symex::nondet6| false)
(= |nondet_symex::nondet7| false)
(= |memory_model::choice_rf_1_22_0_11_T_0| false)
(= |memory_model::choice_rf_1_22_2_34_T_1| true)
(= |memory_model::choice_rf_1_22_3_38_T_2| false)
(= |memory_model::choice_rf_2_33_0_11_T_3| true)
(= |memory_model::choice_rf_2_33_1_23_T_4| false)
(= |memory_model::choice_rf_2_33_3_38_T_5| false)
(= |memory_model::choice_rf_3_37_0_11_T_6| false)
(= |memory_model::choice_rf_3_37_1_23_T_7| false)
(= |memory_model::choice_rf_3_37_2_34_T_8| true)
(= |memory_model::choice_rf_0_59_0_9_T_9| false)
(= |memory_model::choice_rf_0_59_0_55_T_10| true)
(= |memory_model::choice_rf_0_64_0_9_T_11| false)
(= |memory_model::choice_rf_0_64_0_55_T_12| false)
(= |memory_model::choice_rf_0_64_0_60_T_13| true)
(= |memory_model::choice_rf_0_71_0_36_F_14| false)
(= |memory_model::choice_rf_0_71_1_13_F_15| true)
(= |memory_model::choice_rf_0_71_2_30_F_16| false)
(= |memory_model::choice_rf_0_71_3_16_F_17| false)
(= |memory_model::choice_rf_0_71_3_34_F_18| false)
(= |memory_model::choice_rf_1_7_0_36_F_19| false)
(= |memory_model::choice_rf_1_7_0_82_F_20| false)
(= |memory_model::choice_rf_1_7_2_30_F_21| true)
(= |memory_model::choice_rf_1_7_3_16_F_22| false)
(= |memory_model::choice_rf_1_7_3_34_F_23| false)
(= |memory_model::choice_rf_2_19_0_36_F_24| false)
(= |memory_model::choice_rf_2_19_0_82_F_25| false)
(= |memory_model::choice_rf_2_19_1_13_F_26| false)
(= |memory_model::choice_rf_2_19_3_16_F_27| false)
(= |memory_model::choice_rf_2_19_3_34_F_28| true)
(= |memory_model::choice_rf_3_6_0_36_F_29| true)
(= |memory_model::choice_rf_3_6_0_82_F_30| false)
(= |memory_model::choice_rf_3_6_1_13_F_31| false)
(= |memory_model::choice_rf_3_6_2_30_F_32| false)
(= |memory_model::choice_rf_3_23_0_36_F_33| false)
(= |memory_model::choice_rf_3_23_0_82_F_34| false)
(= |memory_model::choice_rf_3_23_1_13_F_35| false)
(= |memory_model::choice_rf_3_23_2_30_F_36| false)
(= |memory_model::choice_rf_3_23_3_16_F_37| true)
(= |memory_model::choice_rf_0_68_0_12_F_38| false)
(= |memory_model::choice_rf_0_68_1_21_F_39| false)
(= |memory_model::choice_rf_0_68_2_32_F_40| false)
(= |memory_model::choice_rf_0_68_3_36_F_41| true)
(= |memory_model::choice_rf_1_20_0_12_F_42| false)
(= |memory_model::choice_rf_1_20_2_32_F_43| true)
(= |memory_model::choice_rf_1_20_3_36_F_44| false)
(= |memory_model::choice_rf_2_31_0_12_F_45| true)
(= |memory_model::choice_rf_2_31_1_21_F_46| false)
(= |memory_model::choice_rf_2_31_3_36_F_47| false)
(= |memory_model::choice_rf_3_35_0_12_F_48| false)
(= |memory_model::choice_rf_3_35_1_21_F_49| true)
(= |memory_model::choice_rf_3_35_2_32_F_50| false)
(= |memory_model::choice_rf_0_85_0_13_F_51| false)
(= |memory_model::choice_rf_0_85_1_14_F_52| true)
(= |memory_model::choice_rf_0_86_0_14_F_53| false)
(= |memory_model::choice_rf_0_86_3_7_F_54| false)
(= |memory_model::choice_rf_0_88_0_25_F_55| false)
(= |memory_model::choice_rf_0_88_3_21_F_56| true)
(= |memory_model::choice_rf_0_70_0_31_F_57| false)
(= |memory_model::choice_rf_0_70_0_69_F_58| true)
(= |memory_model::choice_rf_0_83_0_32_F_59| false)
(= |memory_model::choice_rf_0_93_0_32_F_60| false)
(= |memory_model::choice_rf_0_93_0_90_F_61| true)
(= |memory_model::choice_rf_0_94_0_32_F_62| false)
(= |memory_model::choice_rf_0_94_0_90_F_63| true)
(= |memory_model::choice_rf_0_76_0_39_F_64| true)
(= |memory_model::choice_rf_2_5_0_39_F_65| true)
(= |memory_model::choice_rf_2_5_0_79_F_66| false)
(= |memory_model::choice_rf_1_5_0_40_F_67| true)
(= |memory_model::choice_rf_2_3_0_40_F_68| true)
(= |memory_model::choice_rf_2_3_1_9_F_69| false)
(= |memory_model::choice_rf_2_1_0_41_F_70| true)
(= |memory_model::choice_rf_2_23_0_41_F_71| false)
(= |memory_model::choice_rf_2_23_2_10_F_72| true)
(= |memory_model::choice_rf_2_0_0_42_F_73| true)
(= |memory_model::choice_rf_2_0_3_13_F_74| false)
(= |memory_model::choice_rf_2_0_3_31_F_75| false)
(= |memory_model::choice_rf_3_3_0_42_F_76| true)
(= |memory_model::choice_rf_3_27_0_42_F_77| false)
(= |memory_model::choice_rf_3_27_3_13_F_78| true)
(= |memory_model::choice_rf_0_75_0_43_F_79| false)
(= |memory_model::choice_rf_0_75_2_12_F_80| true)
(= |memory_model::choice_rf_2_4_0_43_F_81| false)
(= |memory_model::choice_rf_2_4_0_78_F_82| false)
(= |memory_model::choice_rf_1_4_0_44_F_83| false)
(= |memory_model::choice_rf_1_4_2_11_F_84| true)
(= |memory_model::choice_rf_2_2_0_44_F_85| false)
(= |memory_model::choice_rf_2_2_1_8_F_86| false)
(= |memory_model::choice_rf_2_7_0_45_F_87| false)
(= |memory_model::choice_rf_2_24_0_45_F_88| false)
(= |memory_model::choice_rf_2_24_2_14_F_89| true)
(= |memory_model::choice_rf_2_6_0_46_F_90| false)
(= |memory_model::choice_rf_2_6_3_19_F_91| false)
(= |memory_model::choice_rf_2_6_3_30_F_92| false)
(= |memory_model::choice_rf_3_4_0_46_F_93| false)
(= |memory_model::choice_rf_3_4_2_13_F_94| true)
(= |memory_model::choice_rf_3_28_0_46_F_95| false)
(= |memory_model::choice_rf_3_28_2_13_F_96| false)
(= |memory_model::choice_rf_3_28_3_19_F_97| true)
(= |memory_model::choice_rf_0_74_0_49_F_98| false)
(= |memory_model::choice_rf_0_74_1_18_F_99| true)
(= |memory_model::choice_rf_0_74_2_17_F_100| false)
(= |memory_model::choice_rf_0_74_3_9_F_101| false)
(= |memory_model::choice_rf_1_2_0_49_F_102| false)
(= |memory_model::choice_rf_1_2_2_17_F_103| false)
(= |memory_model::choice_rf_1_2_3_9_F_104| true)
(= |memory_model::choice_rf_2_9_0_49_F_105| true)
(= |memory_model::choice_rf_2_9_1_18_F_106| false)
(= |memory_model::choice_rf_2_9_3_9_F_107| false)
(= |memory_model::choice_rf_2_22_0_49_F_108| false)
(= |memory_model::choice_rf_2_22_1_18_F_109| false)
(= |memory_model::choice_rf_2_22_2_17_F_110| false)
(= |memory_model::choice_rf_2_22_3_9_F_111| true)
(= |memory_model::choice_rf_3_2_0_49_F_112| false)
(= |memory_model::choice_rf_3_2_1_18_F_113| false)
(= |memory_model::choice_rf_3_2_2_17_F_114| true)
(= |memory_model::choice_rf_3_26_0_49_F_115| false)
(= |memory_model::choice_rf_3_26_1_18_F_116| false)
(= |memory_model::choice_rf_3_26_2_17_F_117| false)
(= |memory_model::choice_rf_3_26_3_9_F_118| true)
(= |memory_model::choice_rf_0_77_0_50_F_119| false)
(= |memory_model::choice_rf_0_77_1_11_F_120| true)
(= |memory_model::choice_rf_0_77_2_15_F_121| false)
(= |memory_model::choice_rf_0_77_2_29_F_122| false)
(= |memory_model::choice_rf_0_77_3_18_F_123| false)
(= |memory_model::choice_rf_0_77_3_33_F_124| false)
(= |memory_model::choice_rf_1_6_0_50_F_125| false)
(= |memory_model::choice_rf_1_6_0_81_F_126| false)
(= |memory_model::choice_rf_1_6_2_15_F_127| false)
(= |memory_model::choice_rf_1_6_2_29_F_128| true)
(= |memory_model::choice_rf_1_6_3_18_F_129| false)
(= |memory_model::choice_rf_1_6_3_33_F_130| false)
(= |memory_model::choice_rf_2_8_0_50_F_131| true)
(= |memory_model::choice_rf_2_8_0_81_F_132| false)
(= |memory_model::choice_rf_2_8_1_11_F_133| false)
(= |memory_model::choice_rf_2_8_3_18_F_134| false)
(= |memory_model::choice_rf_2_8_3_33_F_135| false)
(= |memory_model::choice_rf_2_25_0_50_F_136| false)
(= |memory_model::choice_rf_2_25_0_81_F_137| false)
(= |memory_model::choice_rf_2_25_1_11_F_138| false)
(= |memory_model::choice_rf_2_25_2_15_F_139| false)
(= |memory_model::choice_rf_2_25_3_18_F_140| false)
(= |memory_model::choice_rf_2_25_3_33_F_141| true)
(= |memory_model::choice_rf_3_5_0_50_F_142| false)
(= |memory_model::choice_rf_3_5_0_81_F_143| false)
(= |memory_model::choice_rf_3_5_1_11_F_144| false)
(= |memory_model::choice_rf_3_5_2_15_F_145| true)
(= |memory_model::choice_rf_3_5_2_29_F_146| false)
(= |memory_model::choice_rf_3_29_0_50_F_147| false)
(= |memory_model::choice_rf_3_29_0_81_F_148| false)
(= |memory_model::choice_rf_3_29_1_11_F_149| false)
(= |memory_model::choice_rf_3_29_2_15_F_150| false)
(= |memory_model::choice_rf_3_29_2_29_F_151| false)
(= |memory_model::choice_rf_3_29_3_18_F_152| true)
(= |memory_model::choice_rf_0_72_0_51_F_153| false)
(= |memory_model::choice_rf_0_72_1_12_F_154| true)
(= |memory_model::choice_rf_0_72_2_18_F_155| false)
(= |memory_model::choice_rf_0_72_3_17_F_156| false)
(= |memory_model::choice_rf_1_1_0_51_F_157| false)
(= |memory_model::choice_rf_1_1_2_18_F_158| false)
(= |memory_model::choice_rf_1_1_3_17_F_159| true)
(= |memory_model::choice_rf_2_20_0_51_F_160| false)
(= |memory_model::choice_rf_2_20_1_12_F_161| false)
(= |memory_model::choice_rf_2_20_2_18_F_162| false)
(= |memory_model::choice_rf_2_20_3_17_F_163| true)
(= |memory_model::choice_rf_3_0_0_51_F_164| false)
(= |memory_model::choice_rf_3_0_1_12_F_165| false)
(= |memory_model::choice_rf_3_0_2_18_F_166| true)
(= |memory_model::choice_rf_3_24_0_51_F_167| false)
(= |memory_model::choice_rf_3_24_1_12_F_168| false)
(= |memory_model::choice_rf_3_24_2_18_F_169| false)
(= |memory_model::choice_rf_3_24_3_17_F_170| true)
(= |memory_model::choice_rf_0_73_0_52_F_171| false)
(= |memory_model::choice_rf_0_73_1_10_F_172| true)
(= |memory_model::choice_rf_0_73_2_16_F_173| false)
(= |memory_model::choice_rf_0_73_2_27_F_174| false)
(= |memory_model::choice_rf_0_73_3_20_F_175| false)
(= |memory_model::choice_rf_0_73_3_32_F_176| false)
(= |memory_model::choice_rf_1_3_0_52_F_177| false)
(= |memory_model::choice_rf_1_3_0_80_F_178| false)
(= |memory_model::choice_rf_1_3_2_16_F_179| false)
(= |memory_model::choice_rf_1_3_2_27_F_180| true)
(= |memory_model::choice_rf_1_3_3_20_F_181| false)
(= |memory_model::choice_rf_1_3_3_32_F_182| false)
(= |memory_model::choice_rf_2_21_0_52_F_183| false)
(= |memory_model::choice_rf_2_21_0_80_F_184| false)
(= |memory_model::choice_rf_2_21_1_10_F_185| false)
(= |memory_model::choice_rf_2_21_2_16_F_186| false)
(= |memory_model::choice_rf_2_21_3_20_F_187| false)
(= |memory_model::choice_rf_2_21_3_32_F_188| true)
(= |memory_model::choice_rf_3_1_0_52_F_189| false)
(= |memory_model::choice_rf_3_1_0_80_F_190| false)
(= |memory_model::choice_rf_3_1_1_10_F_191| false)
(= |memory_model::choice_rf_3_1_2_16_F_192| true)
(= |memory_model::choice_rf_3_1_2_27_F_193| false)
(= |memory_model::choice_rf_3_25_0_52_F_194| false)
(= |memory_model::choice_rf_3_25_0_80_F_195| false)
(= |memory_model::choice_rf_3_25_1_10_F_196| false)
(= |memory_model::choice_rf_3_25_2_16_F_197| false)
(= |memory_model::choice_rf_3_25_2_27_F_198| false)
(= |memory_model::choice_rf_3_25_3_20_F_199| true)
(= |memory_model::choice_rf_0_84_0_53_F_200| false)
(= |memory_model::choice_rf_0_84_1_0_F_201| true)
(= |memory_model::choice_rf_0_84_3_22_F_202| false)
(= |memory_model::choice_rf_0_89_0_34_F_203| false)
(= |memory_model::choice_rf_0_89_3_11_F_204| false)
(= |memory_model::choice_rf_0_87_0_2_F_205| true)
(= |memory_model::choice_ws-ext_0_11_1_23_T_206| true)
(= |memory_model::choice_ws-ext_0_11_2_34_T_207| true)
(= |memory_model::choice_ws-ext_0_11_3_38_T_208| true)
(= |memory_model::choice_ws-ext_1_23_2_34_T_209| false)
(= |memory_model::choice_ws-ext_1_23_3_38_T_210| false)
(= |memory_model::choice_ws-ext_2_34_3_38_T_211| true)
(= |memory_model::choice_ws-ext_0_36_1_13_F_212| true)
(= |memory_model::choice_ws-ext_0_36_2_30_F_213| true)
(= |memory_model::choice_ws-ext_0_36_3_16_F_214| true)
(= |memory_model::choice_ws-ext_0_36_3_34_F_215| true)
(= |memory_model::choice_ws-ext_0_82_1_13_F_216| false)
(= |memory_model::choice_ws-ext_0_82_2_30_F_217| false)
(= |memory_model::choice_ws-ext_0_82_3_16_F_218| false)
(= |memory_model::choice_ws-ext_0_82_3_34_F_219| false)
(= |memory_model::choice_ws-ext_1_13_2_30_F_220| false)
(= |memory_model::choice_ws-ext_1_13_3_16_F_221| false)
(= |memory_model::choice_ws-ext_1_13_3_34_F_222| false)
(= |memory_model::choice_ws-ext_2_30_3_16_F_223| false)
(= |memory_model::choice_ws-ext_2_30_3_34_F_224| false)
(= |memory_model::choice_ws-ext_0_12_1_21_F_225| true)
(= |memory_model::choice_ws-ext_0_12_2_32_F_226| true)
(= |memory_model::choice_ws-ext_0_12_3_36_F_227| true)
(= |memory_model::choice_ws-ext_1_21_2_32_F_228| false)
(= |memory_model::choice_ws-ext_1_21_3_36_F_229| true)
(= |memory_model::choice_ws-ext_2_32_3_36_F_230| true)
(= |memory_model::choice_ws-ext_0_13_1_14_F_231| true)
(= |memory_model::choice_ws-ext_0_14_3_7_F_232| true)
(= |memory_model::choice_ws-ext_0_91_3_7_F_233| false)
(= |memory_model::choice_ws-ext_0_25_3_21_F_234| true)
(= |memory_model::choice_ws-ext_0_26_3_15_F_235| true)
(= |memory_model::choice_ws-ext_0_37_1_16_F_236| true)
(= |memory_model::choice_ws-ext_0_37_3_12_F_237| true)
(= |memory_model::choice_ws-ext_1_16_3_12_F_238| false)
(= |memory_model::choice_ws-ext_0_38_1_15_F_239| true)
(= |memory_model::choice_ws-ext_0_38_3_14_F_240| true)
(= |memory_model::choice_ws-ext_1_15_3_14_F_241| false)
(= |memory_model::choice_ws-ext_0_40_1_9_F_242| true)
(= |memory_model::choice_ws-ext_0_41_2_10_F_243| true)
(= |memory_model::choice_ws-ext_0_41_2_26_F_244| true)
(= |memory_model::choice_ws-ext_0_42_3_13_F_245| true)
(= |memory_model::choice_ws-ext_0_42_3_31_F_246| true)
(= |memory_model::choice_ws-ext_0_43_2_12_F_247| true)
(= |memory_model::choice_ws-ext_0_78_2_12_F_248| false)
(= |memory_model::choice_ws-ext_0_44_1_8_F_249| true)
(= |memory_model::choice_ws-ext_0_44_2_11_F_250| true)
(= |memory_model::choice_ws-ext_1_8_2_11_F_251| false)
(= |memory_model::choice_ws-ext_0_45_2_14_F_252| true)
(= |memory_model::choice_ws-ext_0_45_2_28_F_253| true)
(= |memory_model::choice_ws-ext_0_46_2_13_F_254| true)
(= |memory_model::choice_ws-ext_0_46_3_19_F_255| true)
(= |memory_model::choice_ws-ext_0_46_3_30_F_256| true)
(= |memory_model::choice_ws-ext_2_13_3_19_F_257| true)
(= |memory_model::choice_ws-ext_2_13_3_30_F_258| true)
(= |memory_model::choice_ws-ext_0_49_1_18_F_259| true)
(= |memory_model::choice_ws-ext_0_49_2_17_F_260| true)
(= |memory_model::choice_ws-ext_0_49_3_9_F_261| true)
(= |memory_model::choice_ws-ext_1_18_2_17_F_262| false)
(= |memory_model::choice_ws-ext_1_18_3_9_F_263| false)
(= |memory_model::choice_ws-ext_2_17_3_9_F_264| true)
(= |memory_model::choice_ws-ext_0_50_1_11_F_265| true)
(= |memory_model::choice_ws-ext_0_50_2_15_F_266| true)
(= |memory_model::choice_ws-ext_0_50_2_29_F_267| true)
(= |memory_model::choice_ws-ext_0_50_3_18_F_268| true)
(= |memory_model::choice_ws-ext_0_50_3_33_F_269| true)
(= |memory_model::choice_ws-ext_0_81_1_11_F_270| false)
(= |memory_model::choice_ws-ext_0_81_2_15_F_271| false)
(= |memory_model::choice_ws-ext_0_81_2_29_F_272| false)
(= |memory_model::choice_ws-ext_0_81_3_18_F_273| false)
(= |memory_model::choice_ws-ext_0_81_3_33_F_274| false)
(= |memory_model::choice_ws-ext_1_11_2_15_F_275| false)
(= |memory_model::choice_ws-ext_1_11_2_29_F_276| false)
(= |memory_model::choice_ws-ext_1_11_3_18_F_277| false)
(= |memory_model::choice_ws-ext_1_11_3_33_F_278| false)
(= |memory_model::choice_ws-ext_2_15_3_18_F_279| true)
(= |memory_model::choice_ws-ext_2_15_3_33_F_280| true)
(= |memory_model::choice_ws-ext_2_29_3_18_F_281| false)
(= |memory_model::choice_ws-ext_2_29_3_33_F_282| false)
(= |memory_model::choice_ws-ext_0_51_1_12_F_283| true)
(= |memory_model::choice_ws-ext_0_51_2_18_F_284| true)
(= |memory_model::choice_ws-ext_0_51_3_17_F_285| true)
(= |memory_model::choice_ws-ext_1_12_2_18_F_286| false)
(= |memory_model::choice_ws-ext_1_12_3_17_F_287| false)
(= |memory_model::choice_ws-ext_2_18_3_17_F_288| true)
(= |memory_model::choice_ws-ext_0_52_1_10_F_289| true)
(= |memory_model::choice_ws-ext_0_52_2_16_F_290| true)
(= |memory_model::choice_ws-ext_0_52_2_27_F_291| true)
(= |memory_model::choice_ws-ext_0_52_3_20_F_292| true)
(= |memory_model::choice_ws-ext_0_52_3_32_F_293| true)
(= |memory_model::choice_ws-ext_0_80_1_10_F_294| false)
(= |memory_model::choice_ws-ext_0_80_2_16_F_295| false)
(= |memory_model::choice_ws-ext_0_80_2_27_F_296| false)
(= |memory_model::choice_ws-ext_0_80_3_20_F_297| false)
(= |memory_model::choice_ws-ext_0_80_3_32_F_298| false)
(= |memory_model::choice_ws-ext_1_10_2_16_F_299| false)
(= |memory_model::choice_ws-ext_1_10_2_27_F_300| false)
(= |memory_model::choice_ws-ext_1_10_3_20_F_301| false)
(= |memory_model::choice_ws-ext_1_10_3_32_F_302| false)
(= |memory_model::choice_ws-ext_2_16_3_20_F_303| true)
(= |memory_model::choice_ws-ext_2_16_3_32_F_304| true)
(= |memory_model::choice_ws-ext_2_27_3_20_F_305| false)
(= |memory_model::choice_ws-ext_2_27_3_32_F_306| false)
(= |memory_model::choice_ws-ext_0_53_1_0_F_307| true)
(= |memory_model::choice_ws-ext_0_53_3_22_F_308| true)
(= |memory_model::choice_ws-ext_1_0_3_22_F_309| false)
(= |memory_model::choice_ws-ext_0_33_1_19_F_310| true)
(= |memory_model::choice_ws-ext_0_33_3_8_F_311| true)
(= |memory_model::choice_ws-ext_1_19_3_8_F_312| false)
(= |memory_model::choice_ws-ext_0_34_3_11_F_313| true)
(= |memory_model::choice_ws-ext_0_92_3_11_F_314| false)
(= |memory_model::choice_ws-ext_0_35_1_17_F_315| true)
(= |memory_model::choice_ws-ext_0_35_3_10_F_316| true)
(= |memory_model::choice_ws-ext_1_17_3_10_F_317| false)
(= |main$tmp_guard0#3| #b00000001)
(= |__CPROVER_next_thread_id#3| #b00000000000000000000000000000001)
(= |__CPROVER_next_thread_id#6| #b00000000000000000000000000000010)
(= |__unbuffered_cnt#2| #b00000000000000000000000000000011)
(= |x$w_buff0_used#2| #b00000000)
(= |x$r_buff0_thd0#2| #b00000000)
(= |x$w_buff0#2| #b00000000000000000000000000000001)
(= |x$w_buff1_used#2| #b00000000)
(= |x$r_buff1_thd0#2| #b00000000)
(= |x$w_buff1#2| #b00000000000000000000000000000000)
(= |x#2| #b00000000000000000000000000000000)
(= |x#4| #b00000000000000000000000000000000)
(= |x$w_buff0_used#6| #b00000000)
(= |x$w_buff1_used#6| #b00000000)
(= |x$r_buff0_thd0#8| #b00000000)
(= |x$r_buff1_thd0#7| #b00000000)
(= |weak$$choice1#2| #b00000001)
(= |weak$$choice1#3| #b10000000)
(= |__unbuffered_p2_EAX$read_delayed#2| #b00000001)
(= |__unbuffered_p2_EAX$read_delayed_var$object#1| #b00000000000000000000000000000001)
(= |__unbuffered_p2_EAX#2| #b00000000000000000000000000000001)
(= |__unbuffered_p2_EAX#8| #b00000000000000000000000000000001)
(= |y#2| #b00000000000000000000000000000010)
(= |__unbuffered_p0_EAX#2| #b00000000000000000000000000000000)
(= |main$tmp_guard1#2| #b00000000)
(= |main$tmp_guard1#3| #b10000000)
(= |main$tmp_guard1#6| #b00000000)
(= |pthread_create::1::this_thread_id!1@0#0| #b10000000000000000000000000000000)
(= |x#6| #b00000000000000000000000000000000)
(= |x$w_buff0_used#11| #b00000000)
(= |x$r_buff0_thd1#2| #b00000000)
(= |x$w_buff1_used#9| #b00000000)
(= |x$r_buff1_thd1#2| #b00000000)
(= |x$w_buff0#4| #b00000000000000000000000000000001)
(= |x$w_buff1#4| #b00000000000000000000000000000000)
(= |__unbuffered_cnt#4| #b00000000000000000000000000000001)
(= |pthread_create::1::this_thread_id!2@0#0| #b00000000000000000000000000000000)
(= |x$w_buff0#7| #b00000000000000000000000000000000)
(= |x$w_buff0_used#14| #b00000000)
(= |x$r_buff0_thd0#11| #b00000000)
(= |x$r_buff1_thd0#9| #b00000000)
(= |x$r_buff1_thd0#10| #b00000000)
(= |x$r_buff0_thd1#5| #b00000000)
(= |x$r_buff1_thd1#5| #b00000000)
(= |x$r_buff1_thd1#6| #b00000000)
(= |x$r_buff0_thd2#2| #b00000000)
(= |x$r_buff1_thd2#2| #b00000000)
(= |x$r_buff1_thd2#3| #b00000000)
(= |x$r_buff0_thd3#2| #b00000000)
(= |x$r_buff1_thd3#2| #b00000000)
(= |x$r_buff1_thd3#3| #b10000000)
(= |x$r_buff0_thd2#4| #b00000001)
(= |x$w_buff0_used#17| #b00000000)
(= |x$r_buff0_thd2#6| #b00000001)
(= |x$w_buff0#10| #b00000000000000000000000000000001)
(= |x$w_buff1_used#13| #b00000000)
(= |x$r_buff1_thd2#5| #b00000000)
(= |x$w_buff1#8| #b00000000000000000000000000000000)
(= |x#10| #b00000000000000000000000000000000)
(= |x#12| #b00000000000000000000000000000000)
(= |x$w_buff0_used#21| #b00000000)
(= |x$w_buff1_used#17| #b00000000)
(= |x$r_buff0_thd2#12| #b00000001)
(= |x$r_buff1_thd2#10| #b00000000)
(= |__unbuffered_cnt#7| #b00000000000000000000000000000000)
(= |__unbuffered_cnt#9| #b00000000000000000000000000000001)
(= |pthread_create::1::this_thread_id!3@0#0| #b00000000000000000000000000000000)
(= |x#14| #b00000000000000000000000000000000)
(= |x$w_buff0_used#26| #b00000001)
(= |x$r_buff0_thd3#4| #b00000000)
(= |x$w_buff0#12| #b00000000000000000000000000000001)
(= |x$r_buff1_thd3#5| #b00000000)
(= |x$w_buff1_used#20| #b00000000)
(= |x$w_buff1#10| #b00000000000000000000000000000000)
(= |x$w_buff0_used#29| #b00000000)
(= |x$r_buff0_thd3#7| #b00000000)
(= |x$w_buff0#15| #b00000000000000000000000000000001)
(= |x$w_buff1_used#23| #b00000000)
(= |x$r_buff1_thd3#8| #b00000000)
(= |x$w_buff1#13| #b00000000000000000000000000000000)
(= |x#18| #b00000000000000000000000000000000)
(= |__unbuffered_cnt#11| #b00000000000000000000000000000010)
(= |__CPROVER_threads_exited#1$wclk$8| #b00101010)
(= |__CPROVER_threads_exited#2$rclk$8| #b11110110)
(= |__CPROVER_threads_exited#5$wclk$8| #b11011111)
(= |__CPROVER_threads_exited#7$wclk$8| #b11111110)
(= |__CPROVER_threads_exited#4$rclk$8| #b11011110)
(= |__CPROVER_threads_exited#3$wclk$8| #b11111111)
(= |__CPROVER_threads_exited#6$rclk$8| #b11111101)
(= |x#9$wclk$8| #b11000010)
(= |x#2$rclk$8| #b11010000)
(= |x#13$wclk$8| #b10100011)
(= |x#17$wclk$8| #b10011101)
(= |x#20$wclk$8| #b10011111)
(= |x#1$wclk$8| #b01100010)
(= |x#6$rclk$8| #b11000010)
(= |x#5$wclk$8| #b11010000)
(= |x#10$rclk$8| #b10100011)
(= |x#14$rclk$8| #b10011101)
(= |x#18$rclk$8| #b10011111)
(= |__unbuffered_cnt#6$wclk$8| #b11000011)
(= |__unbuffered_cnt#2$rclk$8| #b11001110)
(= |__unbuffered_cnt#10$wclk$8| #b11000010)
(= |__unbuffered_cnt#13$wclk$8| #b11000111)
(= |__unbuffered_cnt#1$wclk$8| #b00101011)
(= |__unbuffered_cnt#4$rclk$8| #b11000011)
(= |__unbuffered_cnt#7$rclk$8| #b11000010)
(= |__unbuffered_cnt#11$rclk$8| #b11000111)
(= |__unbuffered_p0_EAX#4$wclk$8| #b11000010)
(= |__unbuffered_p0_EAX#2$rclk$8| #b11100110)
(= |__unbuffered_p2_EAX#11$wclk$8| #b10011101)
(= |__unbuffered_p2_EAX#2$rclk$8| #b11100110)
(= |__unbuffered_p2_EAX$read_delayed#4$wclk$8| #b10011101)
(= |__unbuffered_p2_EAX$read_delayed#2$rclk$8| #b11100110)
(= |main$tmp_guard1#5| #b00000000)
(= |x$r_buff0_thd0#1$wclk$8| #b01100101)
(= |x$r_buff0_thd0#11$rclk$8| #b10011010)
(= |x$r_buff0_thd0#10$wclk$8| #b11010000)
(= |x$r_buff0_thd1#1$wclk$8| #b01100110)
(= |x$r_buff0_thd1#2$rclk$8| #b11000010)
(= |x$r_buff0_thd1#5$rclk$8| #b10011010)
(= |x$r_buff0_thd1#4$wclk$8| #b11000010)
(= |x$r_buff0_thd2#1$wclk$8| #b01100111)
(= |x$r_buff0_thd2#2$rclk$8| #b10011010)
(= |x$r_buff0_thd2#6$rclk$8| #b10100011)
(= |x$r_buff0_thd3#1$wclk$8| #b01101000)
(= |x$r_buff0_thd3#2$rclk$8| #b10011010)
(= |x$r_buff0_thd3#6$wclk$8| #b10011101)
(= |x$r_buff0_thd3#9$wclk$8| #b10011111)
(= |x$r_buff0_thd3#4$rclk$8| #b10011101)
(= |x$r_buff0_thd3#7$rclk$8| #b10011111)
(= |x$r_buff1_thd0#11$wclk$8| #b10011010)
(= |x$r_buff1_thd0#2$rclk$8| #b11010000)
(= |x$r_buff1_thd0#1$wclk$8| #b01101001)
(= |x$r_buff1_thd0#10$rclk$8| #b10011010)
(= |x$r_buff1_thd0#8$wclk$8| #b11010000)
(= |x$r_buff1_thd1#1$wclk$8| #b01101010)
(= |x$r_buff1_thd1#2$rclk$8| #b11000010)
(= |x$r_buff1_thd1#7$wclk$8| #b10011010)
(= |x$r_buff1_thd1#6$rclk$8| #b10011010)
(= |x$r_buff1_thd1#4$wclk$8| #b11000010)
(= |x$r_buff1_thd2#1$wclk$8| #b01101011)
(= |x$r_buff1_thd2#3$rclk$8| #b10011010)
(= |x$r_buff1_thd2#5$rclk$8| #b10100011)
(= |x$r_buff1_thd3#1$wclk$8| #b01101100)
(= |x$r_buff1_thd3#3$rclk$8| #b10011010)
(= |x$r_buff1_thd3#7$wclk$8| #b10011101)
(= |x$r_buff1_thd3#10$wclk$8| #b10011111)
(= |x$r_buff1_thd3#5$rclk$8| #b10011101)
(= |x$r_buff1_thd3#4$wclk$8| #b10011010)
(= |x$r_buff1_thd3#8$rclk$8| #b10011111)
(= |x$w_buff0#6$wclk$8| #b11000010)
(= |x$w_buff0#2$rclk$8| #b11010000)
(= |x$w_buff0#9$wclk$8| #b10011010)
(= |x$w_buff0#14$wclk$8| #b10011101)
(= |x$w_buff0#1$wclk$8| #b01101111)
(= |x$w_buff0#4$rclk$8| #b11000010)
(= |x$w_buff0#7$rclk$8| #b10011010)
(= |x$w_buff0#10$rclk$8| #b10100011)
(= |x$w_buff0#12$rclk$8| #b10011101)
(= |x$w_buff0#15$rclk$8| #b10011111)
(= |x$w_buff0_used#13$wclk$8| #b11000010)
(= |x$w_buff0_used#2$rclk$8| #b11010000)
(= |x$w_buff0_used#16$wclk$8| #b10011010)
(= |x$w_buff0_used#25$wclk$8| #b10100011)
(= |x$w_buff0_used#28$wclk$8| #b10011101)
(= |x$w_buff0_used#31$wclk$8| #b10011111)
(= |x$w_buff0_used#1$wclk$8| #b01110001)
(= |x$w_buff0_used#11$rclk$8| #b11000010)
(= |x$w_buff0_used#10$wclk$8| #b11010000)
(= |x$w_buff0_used#14$rclk$8| #b10011010)
(= |x$w_buff0_used#17$rclk$8| #b10100011)
(= |x$w_buff0_used#26$rclk$8| #b10011101)
(= |x$w_buff0_used#29$rclk$8| #b10011111)
(= |x$w_buff1#6$wclk$8| #b11000010)
(= |x$w_buff1#2$rclk$8| #b11010000)
(= |x$w_buff1#7$wclk$8| #b10011010)
(= |x$w_buff1#12$wclk$8| #b10011101)
(= |x$w_buff1#1$wclk$8| #b01110011)
(= |x$w_buff1#4$rclk$8| #b11000010)
(= |x$w_buff1#8$rclk$8| #b10100011)
(= |x$w_buff1#10$rclk$8| #b10011101)
(= |x$w_buff1#13$rclk$8| #b10011111)
(= |x$w_buff1_used#11$wclk$8| #b11000010)
(= |x$w_buff1_used#2$rclk$8| #b11010000)
(= |x$w_buff1_used#12$wclk$8| #b10011010)
(= |x$w_buff1_used#19$wclk$8| #b10100011)
(= |x$w_buff1_used#22$wclk$8| #b10011101)
(= |x$w_buff1_used#25$wclk$8| #b10011111)
(= |x$w_buff1_used#1$wclk$8| #b01110100)
(= |x$w_buff1_used#9$rclk$8| #b11000010)
(= |x$w_buff1_used#8$wclk$8| #b11010000)
(= |x$w_buff1_used#13$rclk$8| #b10100011)
(= |x$w_buff1_used#20$rclk$8| #b10011101)
(= |x$w_buff1_used#23$rclk$8| #b10011111)
(= |y#4$wclk$8| #b11000001)
(= |y#2$rclk$8| #b11100110)
(= |y#5$wclk$8| #b10011110)
(= |weak$$choice1#8$wclk$8| #b10011101)
(= |weak$$choice1#3$rclk$8| #b11100110)
(= __unbuffered_p2_EAX$read_delayed_var$object #b00000000000000000000000000000001)
(= |__unbuffered_p0_EAX#1$wclk$8| #b01000100)
(= |__unbuffered_p2_EAX#1$wclk$8| #b01001010)
(= |__unbuffered_p2_EAX#10$wclk$8| #b11100110)
(= |__unbuffered_p2_EAX$read_delayed#1$wclk$8| #b01010111)
(= |__unbuffered_p2_EAX$read_delayed_var#1$wclk$8| #b01011000)
(= |__unbuffered_p2_EAX$read_delayed_var#2$wclk$8| #b10011101)
(= |x$flush_delayed#1$wclk$8| #b01100011)
(= |x$flush_delayed#3$wclk$8| #b11000010)
(= |x$flush_delayed#5$wclk$8| #b10011101)
(= |x$mem_tmp#1$wclk$8| #b01100100)
(= |x$mem_tmp#2$wclk$8| #b11000010)
(= |x$mem_tmp#3$wclk$8| #b10011101)
(= |x$r_buff0_thd2#5$wclk$8| #b10011010)
(= |x$r_buff0_thd2#14$wclk$8| #b10100011)
(= |x$r_buff1_thd2#4$wclk$8| #b10011010)
(= |x$r_buff1_thd2#11$wclk$8| #b10100011)
(= |y#1$wclk$8| #b01111000)
(= |weak$$choice0#1$wclk$8| #b01011111)
(= |weak$$choice0#2$wclk$8| #b11000010)
(= |weak$$choice0#3$wclk$8| #b10011101)
(= |weak$$choice1#1$wclk$8| #b01100000)
(= |weak$$choice1#7$wclk$8| #b11100110)
(= |weak$$choice2#1$wclk$8| #b01100001)
(= |weak$$choice2#2$wclk$8| #b11000010)
(= |weak$$choice2#3$wclk$8| #b10011101)
(= t1$57$spwnclk$8 #b01111100)
(= t1$62$spwnclk$8 #b10011000)
(= t1$67$spwnclk$8 #b10011100)
(= |main::1::t2263!0@1$wclk$8| #b00000000)
(= |main::1::t2264!0@1$wclk$8| #b00010000)
(= __unbuffered_p2_EAX$read_delayed_var$object$wclk$8 #b00100001)
(= |__CPROVER_dead_object#1$wclk$8| #b00100010)
(= |__CPROVER_deallocated#1$wclk$8| #b00100011)
(= |__CPROVER_malloc_is_new_array#1$wclk$8| #b00100100)
(= |__CPROVER_malloc_object#1$wclk$8| #b00100101)
(= |__CPROVER_malloc_size#1$wclk$8| #b00100110)
(= |__CPROVER_memory_leak#1$wclk$8| #b00100111)
(= |__CPROVER_next_thread_id#1$wclk$8| #b00101000)
(= |__CPROVER_pipe_count#1$wclk$8| #b00101001)
(= |__unbuffered_p2_EAX$flush_delayed#1$wclk$8| #b01001011)
(= |__unbuffered_p2_EAX$mem_tmp#1$wclk$8| #b01001101)
(= |__unbuffered_p2_EAX$r_buff0_thd0#1$wclk$8| #b01001111)
(= |__unbuffered_p2_EAX$r_buff0_thd1#1$wclk$8| #b01010000)
(= |__unbuffered_p2_EAX$r_buff0_thd2#1$wclk$8| #b01010001)
(= |__unbuffered_p2_EAX$r_buff0_thd3#1$wclk$8| #b01010010)
(= |__unbuffered_p2_EAX$r_buff1_thd0#1$wclk$8| #b01010011)
(= |__unbuffered_p2_EAX$r_buff1_thd1#1$wclk$8| #b01010100)
(= |__unbuffered_p2_EAX$r_buff1_thd2#1$wclk$8| #b01010101)
(= |__unbuffered_p2_EAX$r_buff1_thd3#1$wclk$8| #b01010110)
(= |__unbuffered_p2_EAX$w_buff0#1$wclk$8| #b01011001)
(= |__unbuffered_p2_EAX$w_buff0_used#1$wclk$8| #b01011010)
(= |__unbuffered_p2_EAX$w_buff1#1$wclk$8| #b01011011)
(= |__unbuffered_p2_EAX$w_buff1_used#1$wclk$8| #b01011100)
(= |main$tmp_guard0#1$wclk$8| #b01011101)
(= |main$tmp_guard1#1$wclk$8| #b01011110)
(= |x$read_delayed#1$wclk$8| #b01101101)
(= |x$read_delayed_var#1$wclk$8| #b01101110)
(= |main::1::t2262!0@1#1$wclk$8| #b01111001)
(= |__CPROVER_next_thread_id#2$wclk$8| #b01111010)
(= |main::1::t2262!0@1#2$wclk$8| #b01111011)
(= |main::1::t2263!0@1#1$wclk$8| #b01111101)
(= |__CPROVER_next_thread_id#3$rclk$8| #b01111110)
(= |__CPROVER_next_thread_id#5$wclk$8| #b01111110)
(= |main::1::t2263!0@1#2$wclk$8| #b01111111)
(= |main::1::t2264!0@1#1$wclk$8| #b10011001)
(= |__CPROVER_next_thread_id#6$rclk$8| #b10011010)
(= |__CPROVER_next_thread_id#8$wclk$8| #b10011010)
(= |main::1::t2264!0@1#2$wclk$8| #b10011011)
(= |main$tmp_guard0#2$wclk$8| #b11001110)
(= |main$tmp_guard0#3$rclk$8| #b11001111)
(= |x$r_buff0_thd0#2$rclk$8| #b11010000)
(= |main$tmp_guard1#3$rclk$8| #b11100110)
(= |__unbuffered_p2_EAX$read_delayed_var$object#1$rclk$8| #b11100110)
(= |main$tmp_guard1#4$wclk$8| #b11100110)
(= |main$tmp_guard1#5$rclk$8| #b11100111)
(= |main$tmp_guard1#6$rclk$8| #b11110100)
(= array_of.0 @fun_7)
(= |__CPROVER_threads_exited#2| @fun_7)
(= |__CPROVER_threads_exited#4| @fun_7)
(= |__CPROVER_threads_exited#6| @fun_7)
(function @fun_7
 (type (Array (_ BitVec 32) (_ BitVec 1)))
 (= (@fun_7 #b10000000000000000000000000000000) #b0)
 (default #b1))

real	0m0.039s
user	0m0.035s
sys	0m0.004s
State: AC Run_time: 0.04096722602844238